; benchmark generated from python API
(set-info :status unknown)
(declare-datatypes ((IntState 0)) (((Mk1 (val1 Int)) (Mk2 (val2 Int)))))
 (declare-fun c_main_~i~6 () Int)
(declare-fun c_main_~k~6 () Int)
(declare-fun c_main_~j~6 () Int)
(assert
 (let (($x163 (<= c_main_~i~6 3)))
 (let (($x45 (exists ((main_~i~6_st IntState) (val!160 Int) )(let ((?x56 (val2 main_~i~6_st)))
 (let (($x26 (<= ?x56 4)))
 (let (($x41 (and (<= c_main_~j~6 (+ (* 2 ?x56) 2)) $x26 (<= ?x56 c_main_~k~6))))
 (let (($x52 (not (= main_~i~6_st (Mk1 val!160)))))
 (and $x52 $x41))))))
 ))
 (let (($x14 (<= c_main_~j~6 (+ (* 2 c_main_~i~6) 2))))
 (let (($x92 (<= c_main_~i~6 4)))
 (let (($x5 (<= c_main_~j~6 (+ (* 2 c_main_~i~6) 1))))
 (let ((?x149 (* 2 c_main_~i~6)))
 (let (($x84 (<= c_main_~j~6 ?x149)))
 (let (($x66 (exists ((v_nnf_96 Int) )(let (($x91 (<= v_nnf_96 4)))
 (let (($x161 (<= c_main_~j~6 (+ (* 2 v_nnf_96) 2))))
 (and (<= (+ v_nnf_96 2) c_main_~k~6) $x161 $x91))))
 ))
 (and (and $x5 $x92 $x66 $x84 $x163) (not (and $x5 $x92 $x14 $x45 $x163))))))))))))
(check-sat)
